Instance name: bar-n200-5
Authors      : CUHKSZ_HWGTS
Date         : 2024-12-06
Reference    : Unpublished
Solution
Route 1 : 44 144 6 94 106 22 41 141 194 122 34 78 12 134 29 178 71 112 171 56 98 129 91 156 191 77 65 177 165 198 48 62 99 148 79 162 35 179 135 199
Route 2 : 85 185 17 68 168 47 147 74 117 174 93 90 40 190 140 63 46 163 193 146 75 27 175 127 54 154 76 43 176 143 28 45 128 5 105 4 145 7 107 104
Route 3 : 26 80 126 42 142 87 19 180 36 136 187 50 119 33 24 59 124 150 23 123 21 58 158 133 51 159 121 151 14 81 37 114 137 61 53 161 153 67 181 167 39 139 96 196
Route 4 : 86 57 186 157 10 8 110 108 89 9 189 109 72 25 83 125 172 55 183 100 155 200 32 132 73 16 2 173 60 160 102 116 69 169
Route 5 : 49 82 182 149 11 84 64 92 164 3 111 192 103 97 184 20 38 120 30 130 197 13 1 138 113 31 101 52 152 18 131 95 195 88 70 15 115 118 66 166 170 188
